
  22    4
  10   10   10   10

   0   0   0   0   0   3 2 3 6 
   2  10  10  10  10   5 12 11 7 5 4 
   8  10  10  10  10   5 12 11 9 8 7 
  10  10  10  10  10   2 14 8 
   4  10  10  10  10   2 14 8 
   2  10  10  10  10   2 14 8 
   9  10  10  10  10   3 14 13 10 
   8  10  10  10  10   2 13 10 
   3  10  10  10  10   2 14 10 
   4  10  10  10  10   2 16 15 
   2  10  10  10  10   2 16 15 
   6  10  10  10  10   2 16 15 
   9  10  10  10  10   3 20 18 16 
   9  10  10  10  10   4 21 20 18 17 
   5  10  10  10  10   3 20 18 17 
   2  10  10  10  10   2 21 17 
   4  10  10  10  10   1 19 
   1  10  10  10  10   1 19 
   2  10  10  10  10   1 22
   7  10  10  10  10   1 22
   4  10  10  10  10   1 22
   0   0   0   0   0   0 
